SAT
-1 -100 -99 -98 -97 -96 -95 -49 94 -64 -5 -69 -89 -4 -31 55 63 20 -93 47 87 27 -72 29 -76 33 -3 -65 66 51 25 -83 -19 68 -88 -70 75 52 42 46 -92 6 57 -59 -67 -78 85 -12 54 17 -38 -13 -84 -80 -32 -61 79 -86 15 73 14 -90 -30 -18 -10 53 56 60 -36 21 37 44 -34 -77 11 2 22 -39 -71 -48 35 24 -40 74 -7 -50 -58 16 -81 43 8 28 91 62 -41 45 23 -82 -9 26 0
